192
0 9 120 185 97 95 32 106 93 182 
132 49 64 27 48 158 40 114 113 118 
139 174 7 73 4 81 177 52 41 31 
190 125 101 12 33 62 172 16 94 25 
100 67 151 183 15 104 181 110 10 159 
46 56 170 112 135 147 145 153 3 83 
57 55 188 36 89 28 115 87 134 92 
165 111 24 90 142 43 103 130 119 131 
5 178 167 116 157 59 2 68 47 138 
121 88 75 191 35 164 60 20 137 128 
160 149 63 21 11 129 144 127 140 179 
74 187 123 143 76 78 8 42 107 1 
82 105 53 44 29 23 173 161 122 34 
13 141 38 80 109 61 50 71 176 69 
58 184 150 51 65 54 166 162 146 6 
91 98 169 84 99 26 148 168 163 45 
18 136 154 102 180 77 17 66 96 155 
124 171 70 19 14 79 156 175 30 85 
72 86 126 186 189 152 37 39 117 22 
108 133 
